59 61 16 86 38 44 14 42 87 2 57 15 41 22 73 26 12 76 30 32 10 70 50 68 80 54 4 56 74 43 97 13 58 
53 40 21 72 75 23 67 39 25 55 24 29 79 33 81 9 51 1 
94 95 92 37 98 100 91 85 93 99 96 6 
18 82 8 46 36 49 64 63 90 20 66 65 71 35 34 78 3 77 
89 60 83 45 17 84 5 
28 69 31 88 62 11 19 47 48 7 52 27 
